\ENCODING=ISO-8859-1
\Problem name: 

Minimize
 obj: x1 + x2 + x3 + x4 + x5 + x6 + x7 + x8 + x9 + x10 + x11 + 2 x12 + 2 x13
      + 2 x14 + 2 x15 + 2 x16 + 2 x17 + 2 x18 + 2 x19 + 3 x20 + 3 x21 + 3 x22
      + 3 x23 + 3 x24 + 3 x25 + 4 x26 + 4 x27 + 4 x28 + 4 x29 + 4 x30 + 4 x31
      + 4 x32 + 4 x33 + 5 x34 + 5 x35 + 5 x36 + 5 x37 + 5 x38 + 5 x39 + 6 x40
      + 6 x41 + 6 x42 + 6 x43 + 6 x44 + 6 x45 + 7 x46 + 7 x47 + 7 x48 + 7 x49
      + 7 x50 + 7 x51 + 7 x52 + 7 x53 + 7 x54 + 7 x55 + 7 x56 + 7 x57 + 7 x58
      + 8 x59 + 8 x60 + 8 x61 + 8 x62 + 8 x63 + 8 x64 + 9 x65 + 9 x66 + 9 x67
      + 9 x68 + 9 x69 + 9 x70 + 9 x71 + 9 x72 + 9 x73 + 9 x74 + 10 x75 + 10 x76
      + 10 x77 + 10 x78 + 10 x79 + 10 x80 + 10 x81 + 10 x82 + 10 x83 + 10 x84
      + 10 x85 + 10 x86 + 10 x87 + 10 x88 + 10 x89 + 10 x90 + 11 x91 + 11 x92
      + 11 x93 + 11 x94 + 11 x95 + 11 x96 + 11 x97 + 11 x98 + 11 x99 + 12 x100
      + 12 x101 + 12 x102 + 12 x103 + 12 x104 + 13 x105 + 13 x106 + 13 x107
      + 13 x108 + 13 x109 + 13 x110 + 13 x111 + 13 x112 + 14 x113 + 14 x114
      + 14 x115 + 14 x116 + 14 x117 + 14 x118 + 14 x119 + 15 x120 + 15 x121
      + 15 x122 + 15 x123 + 15 x124 + 15 x125 + 15 x126 + 15 x127 + 15 x128
      + 16 x129 + 16 x130 + 16 x131 + 16 x132 + 16 x133 + 17 x134 + 17 x135
      + 17 x136 + 17 x137 + 17 x138 + 18 x139 + 18 x140 + 18 x141 + 18 x142
      + 18 x143 + 18 x144 + 19 x145 + 19 x146 + 19 x147 + 19 x148 + 20 x149
      + 20 x150 + 21 x151 + 21 x152 + 21 x153 + 22 x154 + 22 x155 + 22 x156
      + 23 x157 + 23 x158 + 23 x159 + 23 x160 + 24 x161 + 24 x162 + 25 x163
      + 26 x164 + 26 x165 + 28 x166 + 28 x167 + 29 x168 + 29 x169 + 29 x170
      + 29 x171 + 29 x172 + 29 x173 + 30 x174 + 30 x175 + 31 x176 + 31 x177
      + 32 x178 + 32 x179 + 33 x180 + 33 x181 + 33 x182 + 33 x183 + 33 x184
      + 33 x185 + 34 x186 + 34 x187 + 34 x188 + 34 x189 + 34 x190 + 35 x191
      + 35 x192 + 35 x193 + 35 x194 + 36 x195 + 36 x196 + 36 x197 + 36 x198
      + 36 x199 + 37 x200 + 37 x201 + 38 x202 + 39 x203 + 39 x204 + 39 x205
      + 41 x206 + 45 x207 + 45 x208 + 46 x209 + 46 x210 + 51 x211 + 53 x212
      + 57 x213 + 59 x214 + 80 x215
Subject To
 c1:   x20 + x87 + x159 + x180 + x199 >= 1
 c2:   x7 + x46 + x100 + x178 >= 1
 c3:   x7 + x21 + x64 + x91 + x113 + x131 + x142 >= 1
 c4:   x168 + x210 + x215 >= 1
 c5:   x76 + x153 + x167 + x183 + x214 >= 1
 c6:   x80 + x106 + x151 + x159 + x160 + x178 + x207 >= 1
 c7:   x24 + x48 + x82 >= 1
 c8:   x7 + x21 + x120 + x130 + x164 >= 1
 c9:   x25 + x32 + x95 + x103 + x115 + x123 + x154 + x170 >= 1
 c10:  x8 + x81 + x167 + x200 >= 1
 c11:  x34 + x40 + x154 + x156 + x206 + x211 >= 1
 c12:  x16 + x41 + x49 + x71 + x210 >= 1
 c13:  x68 + x75 + x140 + x155 + x202 + x206 + x215 >= 1
 c14:  x29 + x61 + x140 + x203 + x214 >= 1
 c15:  x4 + x5 + x49 + x107 + x208 >= 1
 c16:  x26 + x62 + x102 + x134 + x175 + x178 + x192 >= 1
 c17:  x7 + x68 + x154 + x192 + x209 >= 1
 c18:  x6 + x29 + x92 + x132 + x178 + x181 + x203 >= 1
 c19:  x100 + x146 + x156 >= 1
 c20:  x19 >= 1
 c21:  x16 + x67 + x73 + x93 + x123 + x129 >= 1
 c22:  x3 + x9 + x72 + x101 + x116 + x162 + x186 >= 1
 c23:  x4 + x26 + x36 + x114 + x140 >= 1
 c24:  x22 + x65 + x68 + x92 + x135 + x195 + x205 + x212 >= 1
 c25:  x20 + x59 + x65 >= 1
 c26:  x17 + x134 + x175 >= 1
 c27:  x5 + x59 + x66 + x94 + x96 + x107 + x120 + x124 + x131 + x214 >= 1
 c28:  x69 + x83 + x118 + x150 + x188 + x191 + x213 >= 1
 c29:  x20 + x76 + x106 + x164 + x209 >= 1
 c30:  x2 + x48 + x135 + x151 + x195 + x197 >= 1
 c31:  x6 + x49 + x122 + x155 + x172 + x188 >= 1
 c32:  x20 + x24 + x75 + x126 + x194 + x202 >= 1
 c33:  x47 + x67 + x115 + x139 + x143 + x157 >= 1
 c34:  x47 + x71 + x85 + x200 >= 1
 c35:  x100 + x153 + x165 + x200 >= 1
 c36:  x27 + x141 + x147 + x171 >= 1
 c37:  x140 + x144 + x163 + x172 + x174 + x178 + x182 + x188 + x191 + x211 >= 1
 c38:  x14 + x65 + x112 + x139 >= 1
 c39:  x17 + x51 + x79 + x121 + x139 + x193 + x209 >= 1
 c40:  x43 + x46 + x98 + x133 + x177 + x184 + x191 >= 1
 c41:  x127 + x169 + x176 + x184 + x186 + x187 + x203 >= 1
 c42:  x37 + x56 + x96 + x196 >= 1
 c43:  x125 + x152 >= 1
 c44:  x34 + x92 + x94 + x122 + x129 >= 1
 c45:  x20 + x48 + x98 + x99 + x116 >= 1
 c46:  x32 + x48 + x63 + x149 + x188 >= 1
 c47:  x2 + x78 + x80 >= 1
 c48:  x14 + x15 + x26 + x108 + x145 + x168 + x215 >= 1
 c49:  x30 + x37 + x100 + x105 + x114 + x182 >= 1
 c50:  x47 + x134 + x142 + x171 >= 1
 c51:  x14 + x65 + x120 + x122 + x164 >= 1
 c52:  x74 + x77 + x107 + x141 >= 1
 c53:  x27 + x76 >= 1
 c54:  x58 + x76 + x124 + x156 + x174 + x215 >= 1
 c55:  x45 + x78 + x161 + x180 + x189 + x201 >= 1
 c56:  x33 + x185 + x211 >= 1
 c57:  x46 + x58 + x123 + x147 + x166 + x208 >= 1
 c58:  x31 + x59 >= 1
 c59:  x10 + x38 + x40 + x66 + x114 + x121 + x151 >= 1
 c60:  x18 + x150 + x174 >= 1
 c61:  x21 + x85 + x86 + x102 + x103 + x129 + x134 >= 1
 c62:  x8 + x100 + x164 >= 1
 c63:  x13 + x14 + x53 + x93 + x102 + x104 + x196 >= 1
 c64:  x12 + x14 + x30 + x54 + x78 + x125 >= 1
 c65:  x60 + x214 >= 1
 c66:  x57 + x65 + x76 + x209 >= 1
 c67:  x13 + x108 + x111 >= 1
 c68:  x38 + x88 + x95 + x204 >= 1
 c69:  x177 + x198 + x207 + x213 + x215 >= 1
 c70:  x59 + x65 + x104 + x121 + x164 + x203 >= 1
 c71:  x50 + x63 + x126 + x184 + x190 >= 1
 c72:  x15 + x80 + x113 + x158 >= 1
 c73:  x78 + x131 + x157 + x215 >= 1
 c74:  x114 + x145 + x157 + x187 >= 1
 c75:  x44 + x50 + x53 + x136 >= 1
 c76:  x74 + x101 + x166 + x192 + x203 >= 1
 c77:  x23 + x43 + x59 + x143 + x149 + x166 >= 1
 c78:  x114 + x115 + x169 + x204 + x212 >= 1
 c79:  x95 + x115 + x139 >= 1
 c80:  x52 + x84 + x85 + x111 + x148 >= 1
 c81:  x133 + x196 + x197 >= 1
 c82:  x78 + x107 + x128 + x180 >= 1
 c83:  x16 + x69 + x149 + x181 >= 1
 c84:  x55 + x100 + x138 + x139 >= 1
 c85:  x88 + x132 + x142 + x174 + x193 >= 1
 c86:  x59 + x70 + x87 + x142 + x170 + x182 + x196 >= 1
 c87:  x49 + x204 >= 1
 c88:  x42 + x55 + x63 + x67 + x129 + x165 + x205 >= 1
 c89:  x27 + x30 + x62 + x114 + x147 + x173 >= 1
 c90:  x126 + x159 + x167 >= 1
 c91:  x5 + x37 + x106 + x146 >= 1
 c92:  x99 + x118 + x123 + x145 + x165 + x198 + x212 + x213 >= 1
 c93:  x75 + x94 + x132 + x169 + x194 + x210 >= 1
 c94:  x64 + x181 + x184 + x200 >= 1
 c95:  x11 + x35 + x59 + x60 >= 1
 c96:  x6 + x15 + x41 + x66 + x113 + x177 + x215 >= 1
 c97:  x31 + x73 + x158 >= 1
 c98:  x97 + x116 + x117 + x118 + x126 + x193 + x200 + x209 >= 1
 c99:  x4 + x72 + x140 + x141 + x186 >= 1
 c100: x38 + x41 + x108 + x139 >= 1
 c101: x1 + x127 + x140 + x163 >= 1
 c102: x40 + x53 + x76 + x77 + x111 + x165 + x210 >= 1
 c103: x12 + x77 + x146 + x167 >= 1
 c104: x15 + x91 + x176 + x182 + x215 >= 1
 c105: x1 + x3 + x152 >= 1
 c106: x175 + x179 + x195 + x202 + x206 + x207 + x208 + x212 + x214 >= 1
 c107: x65 + x75 + x103 + x120 + x180 >= 1
 c108: x12 + x47 + x59 + x155 + x172 + x173 + x192 >= 1
 c109: x149 + x168 + x183 + x193 + x205 + x211 >= 1
 c110: x69 + x75 + x94 + x140 + x166 >= 1
 c111: x1 + x3 + x101 + x124 + x201 >= 1
 c112: x12 + x61 + x64 + x93 + x154 + x190 >= 1
 c113: x19 + x20 + x101 >= 1
 c114: x2 + x8 + x48 + x79 + x141 + x194 >= 1
 c115: x23 + x27 + x33 + x83 + x105 >= 1
 c116: x68 + x71 + x130 + x157 >= 1
 c117: x34 + x95 + x102 + x152 >= 1
 c118: x10 + x28 + x136 + x144 >= 1
 c119: x1 + x174 >= 1
 c120: x50 + x62 + x67 + x73 + x146 + x162 >= 1
 c121: x2 + x29 + x117 + x134 + x149 + x193 + x194 >= 1
 c122: x4 + x202 >= 1
 c123: x16 + x51 + x60 + x102 + x159 + x163 + x194 + x204 >= 1
 c124: x109 + x112 + x136 + x172 + x189 >= 1
 c125: x30 + x67 + x161 + x211 >= 1
 c126: x14 + x23 + x129 + x204 >= 1
 c127: x4 + x59 + x79 + x82 + x93 + x146 + x203 + x214 >= 1
 c128: x57 + x205 >= 1
 c129: x54 + x93 + x137 + x158 >= 1
 c130: x21 + x26 + x36 >= 1
 c131: x11 + x62 + x148 >= 1
 c132: x87 + x91 + x192 + x215 >= 1
 c133: x6 + x13 + x80 + x105 >= 1
 c134: x75 + x77 >= 1
 c135: x90 + x154 + x168 + x192 + x197 + x204 >= 1
 c136: x26 + x78 + x96 + x110 + x176 >= 1
 c137: x39 + x81 + x161 + x176 + x183 + x205 >= 1
 c138: x50 + x161 + x166 + x183 >= 1
 c139: x3 + x35 + x51 + x60 + x92 + x109 + x131 + x154 >= 1
 c140: x27 + x66 >= 1
 c141: x16 + x34 + x66 + x75 >= 1
 c142: x9 + x13 + x40 + x66 + x113 + x141 + x190 >= 1
 c143: x36 + x56 + x130 + x145 >= 1
 c144: x135 + x171 + x209 >= 1
 c145: x6 + x28 >= 1
 c146: x61 + x81 + x119 + x147 >= 1
 c147: x46 + x124 + x125 + x168 >= 1
 c148: x77 + x79 + x86 + x166 + x180 + x207 >= 1
 c149: x54 + x142 + x169 + x185 + x188 + x209 >= 1
 c150: x21 + x76 + x83 + x98 + x105 + x206 >= 1
 c151: x72 + x89 + x122 + x145 + x166 + x181 >= 1
 c152: x91 + x158 + x161 + x189 >= 1
 c153: x60 + x82 + x108 + x154 + x182 + x207 >= 1
 c154: x20 + x91 + x104 + x119 + x135 + x139 + x170 + x171 >= 1
 c155: x109 + x156 + x160 >= 1
 c156: x2 + x164 + x209 >= 1
 c157: x21 + x210 >= 1
 c158: x18 + x24 + x61 + x166 >= 1
 c159: x28 + x89 + x116 + x169 + x186 + x191 >= 1
 c160: x22 + x31 + x130 + x181 + x183 >= 1
 c161: x82 + x130 + x137 >= 1
 c162: x137 >= 1
 c163: x20 + x70 + x82 + x91 + x142 + x186 + x215 >= 1
 c164: x9 + x39 + x92 + x124 >= 1
 c165: x12 + x13 + x120 + x193 >= 1
 c166: x79 + x107 + x163 + x187 + x200 + x202 >= 1
 c167: x3 + x117 + x149 + x187 + x205 >= 1
 c168: x164 + x173 + x177 + x185 + x190 + x194 + x199 + x201 >= 1
 c169: x47 + x105 + x139 + x213 >= 1
 c170: x105 + x106 + x122 + x148 + x164 + x189 + x197 + x198 >= 1
 c171: x46 + x66 + x91 + x129 + x141 + x148 + x196 >= 1
 c172: x79 + x115 + x170 + x176 >= 1
 c173: x17 + x70 + x74 + x121 + x155 + x189 + x191 + x195 >= 1
 c174: x35 + x77 + x81 + x120 + x123 + x152 + x162 + x179 >= 1
 c175: x5 + x12 + x34 + x80 >= 1
 c176: x13 + x21 + x40 + x83 >= 1
 c177: x35 + x80 + x103 + x105 + x128 >= 1
 c178: x5 + x182 + x206 >= 1
 c179: x1 + x34 + x42 + x117 + x164 + x167 >= 1
 c180: x2 + x22 + x28 + x46 + x153 + x197 >= 1
 c181: x42 + x51 + x96 + x97 + x180 >= 1
 c182: x3 + x146 + x175 + x187 + x195 >= 1
 c183: x84 + x94 + x110 + x131 + x150 + x201 >= 1
 c184: x138 + x143 + x155 + x162 + x181 >= 1
 c185: x64 + x92 + x160 + x170 >= 1
 c186: x36 + x59 + x121 + x128 + x134 + x195 + x196 >= 1
 c187: x32 + x37 + x56 + x69 + x202 >= 1
 c188: x47 + x49 + x81 + x113 + x195 >= 1
 c189: x1 + x55 + x61 + x63 + x213 >= 1
 c190: x97 + x106 + x110 + x157 + x186 + x198 + x199 >= 1
 c191: x29 + x101 + x151 + x157 + x177 + x206 >= 1
 c192: x77 + x84 + x91 + x112 + x113 + x116 + x121 + x127 + x144 + x147 + x151
       + x187 + x206 >= 1
 c193: x119 + x120 + x125 + x208 >= 1
 c194: x52 + x78 + x135 + x211 >= 1
 c195: x15 + x25 + x117 + x144 + x145 + x146 + x152 >= 1
 c196: x26 + x70 + x145 + x171 + x195 + x203 + x204 >= 1
 c197: x75 + x109 + x165 >= 1
 c198: x52 + x86 + x90 + x191 + x213 + x214 >= 1
 c199: x65 + x173 >= 1
 c200: x22 + x26 + x44 + x92 + x141 + x143 + x180 + x197 + x199 >= 1
Bounds
 0 <= x1 <= 1
 0 <= x2 <= 1
 0 <= x3 <= 1
 0 <= x4 <= 1
 0 <= x5 <= 1
 0 <= x6 <= 1
 0 <= x7 <= 1
 0 <= x8 <= 1
 0 <= x9 <= 1
 0 <= x10 <= 1
 0 <= x11 <= 1
 0 <= x12 <= 1
 0 <= x13 <= 1
 0 <= x14 <= 1
 0 <= x15 <= 1
 0 <= x16 <= 1
 0 <= x17 <= 1
 0 <= x18 <= 1
 0 <= x19 <= 1
 0 <= x20 <= 1
 0 <= x21 <= 1
 0 <= x22 <= 1
 0 <= x23 <= 1
 0 <= x24 <= 1
 0 <= x25 <= 1
 0 <= x26 <= 1
 0 <= x27 <= 1
 0 <= x28 <= 1
 0 <= x29 <= 1
 0 <= x30 <= 1
 0 <= x31 <= 1
 0 <= x32 <= 1
 0 <= x33 <= 1
 0 <= x34 <= 1
 0 <= x35 <= 1
 0 <= x36 <= 1
 0 <= x37 <= 1
 0 <= x38 <= 1
 0 <= x39 <= 1
 0 <= x40 <= 1
 0 <= x41 <= 1
 0 <= x42 <= 1
 0 <= x43 <= 1
 0 <= x44 <= 1
 0 <= x45 <= 1
 0 <= x46 <= 1
 0 <= x47 <= 1
 0 <= x48 <= 1
 0 <= x49 <= 1
 0 <= x50 <= 1
 0 <= x51 <= 1
 0 <= x52 <= 1
 0 <= x53 <= 1
 0 <= x54 <= 1
 0 <= x55 <= 1
 0 <= x56 <= 1
 0 <= x57 <= 1
 0 <= x58 <= 1
 0 <= x59 <= 1
 0 <= x60 <= 1
 0 <= x61 <= 1
 0 <= x62 <= 1
 0 <= x63 <= 1
 0 <= x64 <= 1
 0 <= x65 <= 1
 0 <= x66 <= 1
 0 <= x67 <= 1
 0 <= x68 <= 1
 0 <= x69 <= 1
 0 <= x70 <= 1
 0 <= x71 <= 1
 0 <= x72 <= 1
 0 <= x73 <= 1
 0 <= x74 <= 1
 0 <= x75 <= 1
 0 <= x76 <= 1
 0 <= x77 <= 1
 0 <= x78 <= 1
 0 <= x79 <= 1
 0 <= x80 <= 1
 0 <= x81 <= 1
 0 <= x82 <= 1
 0 <= x83 <= 1
 0 <= x84 <= 1
 0 <= x85 <= 1
 0 <= x86 <= 1
 0 <= x87 <= 1
 0 <= x88 <= 1
 0 <= x89 <= 1
 0 <= x90 <= 1
 0 <= x91 <= 1
 0 <= x92 <= 1
 0 <= x93 <= 1
 0 <= x94 <= 1
 0 <= x95 <= 1
 0 <= x96 <= 1
 0 <= x97 <= 1
 0 <= x98 <= 1
 0 <= x99 <= 1
 0 <= x100 <= 1
 0 <= x101 <= 1
 0 <= x102 <= 1
 0 <= x103 <= 1
 0 <= x104 <= 1
 0 <= x105 <= 1
 0 <= x106 <= 1
 0 <= x107 <= 1
 0 <= x108 <= 1
 0 <= x109 <= 1
 0 <= x110 <= 1
 0 <= x111 <= 1
 0 <= x112 <= 1
 0 <= x113 <= 1
 0 <= x114 <= 1
 0 <= x115 <= 1
 0 <= x116 <= 1
 0 <= x117 <= 1
 0 <= x118 <= 1
 0 <= x119 <= 1
 0 <= x120 <= 1
 0 <= x121 <= 1
 0 <= x122 <= 1
 0 <= x123 <= 1
 0 <= x124 <= 1
 0 <= x125 <= 1
 0 <= x126 <= 1
 0 <= x127 <= 1
 0 <= x128 <= 1
 0 <= x129 <= 1
 0 <= x130 <= 1
 0 <= x131 <= 1
 0 <= x132 <= 1
 0 <= x133 <= 1
 0 <= x134 <= 1
 0 <= x135 <= 1
 0 <= x136 <= 1
 0 <= x137 <= 1
 0 <= x138 <= 1
 0 <= x139 <= 1
 0 <= x140 <= 1
 0 <= x141 <= 1
 0 <= x142 <= 1
 0 <= x143 <= 1
 0 <= x144 <= 1
 0 <= x145 <= 1
 0 <= x146 <= 1
 0 <= x147 <= 1
 0 <= x148 <= 1
 0 <= x149 <= 1
 0 <= x150 <= 1
 0 <= x151 <= 1
 0 <= x152 <= 1
 0 <= x153 <= 1
 0 <= x154 <= 1
 0 <= x155 <= 1
 0 <= x156 <= 1
 0 <= x157 <= 1
 0 <= x158 <= 1
 0 <= x159 <= 1
 0 <= x160 <= 1
 0 <= x161 <= 1
 0 <= x162 <= 1
 0 <= x163 <= 1
 0 <= x164 <= 1
 0 <= x165 <= 1
 0 <= x166 <= 1
 0 <= x167 <= 1
 0 <= x168 <= 1
 0 <= x169 <= 1
 0 <= x170 <= 1
 0 <= x171 <= 1
 0 <= x172 <= 1
 0 <= x173 <= 1
 0 <= x174 <= 1
 0 <= x175 <= 1
 0 <= x176 <= 1
 0 <= x177 <= 1
 0 <= x178 <= 1
 0 <= x179 <= 1
 0 <= x180 <= 1
 0 <= x181 <= 1
 0 <= x182 <= 1
 0 <= x183 <= 1
 0 <= x184 <= 1
 0 <= x185 <= 1
 0 <= x186 <= 1
 0 <= x187 <= 1
 0 <= x188 <= 1
 0 <= x189 <= 1
 0 <= x190 <= 1
 0 <= x191 <= 1
 0 <= x192 <= 1
 0 <= x193 <= 1
 0 <= x194 <= 1
 0 <= x195 <= 1
 0 <= x196 <= 1
 0 <= x197 <= 1
 0 <= x198 <= 1
 0 <= x199 <= 1
 0 <= x200 <= 1
 0 <= x201 <= 1
 0 <= x202 <= 1
 0 <= x203 <= 1
 0 <= x204 <= 1
 0 <= x205 <= 1
 0 <= x206 <= 1
 0 <= x207 <= 1
 0 <= x208 <= 1
 0 <= x209 <= 1
 0 <= x210 <= 1
 0 <= x211 <= 1
 0 <= x212 <= 1
 0 <= x213 <= 1
 0 <= x214 <= 1
 0 <= x215 <= 1
Binaries
 x1  x2  x3  x4  x5  x6  x7  x8  x9  x10  x11  x12  x13  x14  x15  x16  x17 
 x18  x19  x20  x21  x22  x23  x24  x25  x26  x27  x28  x29  x30  x31  x32 
 x33  x34  x35  x36  x37  x38  x39  x40  x41  x42  x43  x44  x45  x46  x47 
 x48  x49  x50  x51  x52  x53  x54  x55  x56  x57  x58  x59  x60  x61  x62 
 x63  x64  x65  x66  x67  x68  x69  x70  x71  x72  x73  x74  x75  x76  x77 
 x78  x79  x80  x81  x82  x83  x84  x85  x86  x87  x88  x89  x90  x91  x92 
 x93  x94  x95  x96  x97  x98  x99  x100  x101  x102  x103  x104  x105  x106 
 x107  x108  x109  x110  x111  x112  x113  x114  x115  x116  x117  x118  x119 
 x120  x121  x122  x123  x124  x125  x126  x127  x128  x129  x130  x131  x132 
 x133  x134  x135  x136  x137  x138  x139  x140  x141  x142  x143  x144  x145 
 x146  x147  x148  x149  x150  x151  x152  x153  x154  x155  x156  x157  x158 
 x159  x160  x161  x162  x163  x164  x165  x166  x167  x168  x169  x170  x171 
 x172  x173  x174  x175  x176  x177  x178  x179  x180  x181  x182  x183  x184 
 x185  x186  x187  x188  x189  x190  x191  x192  x193  x194  x195  x196  x197 
 x198  x199  x200  x201  x202  x203  x204  x205  x206  x207  x208  x209  x210 
 x211  x212  x213  x214  x215 
End
